WARNING: for repeatability, setting FPU to use double precision
============================[ Problem Statistics ]=============================
|                                                                             |
|  Number of variables:           100                                         |
|  Number of clauses:             449                                         |
|  Parse time:                   0.00 s                                       |
|  Eliminated clauses:           0.00 Mb                                      |
|  Simplification time:          0.00 s                                       |
|                                                                             |
============================[ Search Statistics ]==============================
| Conflicts |          ORIGINAL         |          LEARNT          | Progress |
|           |    Vars  Clauses Literals |    Limit  Clauses Lit/Cl |          |
===============================================================================
|       100 |      98      447     1354 |      163      100      7 |  0.010 % |
===============================================================================
restarts              : 2
conflicts             : 164            (65365 /sec)
decisions             : 217            (0.00 % random) (86489 /sec)
propagations          : 4148           (1653248 /sec)
conflict literals     : 1163           (20.07 % deleted)
Memory used           : 13.00 MB
CPU time              : 0.002509 s

SATISFIABLE
